param n = 4;
param m = 4;


param f :=
1	6000000 
2	5500000 
3	5600000 
4	6100000 
;


param h :=
1	110000
2	180000
3	120000
4	100000
;



param c:	1	2	3	4 :=
 1  211  232  238  299  	 
 2  232  212  230  280
 3  240  230  215  270
 4  300  280  270  225
;


param a = 200000;



param d :=
1  4000000  
2  3700000  
3  3700000  
4  4100000  
;

